\ This file was automatically generated by Zimpl
\ var x1 >= 0;
\ var x2 >= 0;
\ maximize Z:     3*x1 + 4*x2;
\ subto r1:     1*x1 - 2*x2 >= 4;
\ subto r2:     1*x1 + 1*x2 <= 3;
\Problem name: pp
Maximize
 Z:  +3 x1 +4 x2
Subject to
 r1_1:
  -2 x2 + x1 >= 4
 r2_1:
  + x2 + x1 <= 3
Bounds
 0 <= x1 <= +inf
 0 <= x2 <= +inf
End
